(set-info :smt-lib-version 2.6)
(set-logic UF)
(set-info :source |Benchmarks from the paper: "Extending Sledgehammer with SMT Solvers" by Jasmin Blanchette, Sascha Bohme, and Lawrence C. Paulson, CADE 2011.  Translated to SMT2 by Andrew Reynolds and Morgan Deters.|)
(set-info :category "industrial")
(set-info :status unsat)
(declare-sort S1 0)
(declare-sort S2 0)
(declare-sort S3 0)
(declare-sort S4 0)
(declare-sort S5 0)
(declare-sort S6 0)
(declare-sort S7 0)
(declare-sort S8 0)
(declare-sort S9 0)
(declare-sort S10 0)
(declare-sort S11 0)
(declare-fun f1 () S1)
(declare-fun f2 () S1)
(declare-fun f3 (S2 S2) S1)
(declare-fun f4 (S3 S2) S2)
(declare-fun f5 (S4 S2) S3)
(declare-fun f6 () S4)
(declare-fun f7 () S4)
(declare-fun f8 (S6 S5) S1)
(declare-fun f9 (S2 S2 S5) S6)
(declare-fun f10 () S4)
(declare-fun f11 (S7 S5) S2)
(declare-fun f12 (S8 S5) S7)
(declare-fun f13 () S8)
(declare-fun f14 (S9 S5) S5)
(declare-fun f15 (S10 S2) S9)
(declare-fun f16 () S10)
(declare-fun f17 () S2)
(declare-fun f18 () S5)
(declare-fun f19 () S5)
(declare-fun f20 (S11 S6) S2)
(declare-fun f21 () S11)
(declare-fun f22 () S6)
(declare-fun f23 () S4)
(declare-fun f24 () S2)
(declare-fun f25 () S11)
(declare-fun f26 () S2)
(declare-fun f27 () S2)
(declare-fun f28 () S5)
(declare-fun f29 () S2)
(declare-fun f30 () S2)
(assert (not (= f1 f2)))
(assert (forall ((?v0 S2) (?v1 S2)) (=> (= (f3 ?v0 ?v1) f1) (= (f4 (f5 f6 ?v0) (f4 (f5 f7 ?v1) ?v0)) ?v1))))
(assert (forall ((?v0 S2) (?v1 S2)) (= (f3 ?v0 (f4 (f5 f6 ?v0) ?v1)) f1)))
(assert (forall ((?v0 S2) (?v1 S2) (?v2 S5) (?v3 S5)) (= (= (f8 (f9 ?v0 ?v1 ?v2) ?v3) f1) (not (= (f3 ?v0 (f4 (f5 f10 ?v1) (f11 (f12 f13 ?v2) ?v3))) f1)))))
(assert (forall ((?v0 S2) (?v1 S5) (?v2 S2) (?v3 S5)) (= (f11 (f12 f13 (f14 (f15 f16 ?v0) ?v1)) (f14 (f15 f16 ?v2) ?v3)) (f4 (f5 f10 (f4 (f5 f6 ?v0) ?v2)) (f11 (f12 f13 ?v1) ?v3)))))
(assert (forall ((?v0 S2) (?v1 S2) (?v2 S2)) (let ((?v_1 (f5 f10 ?v0)) (?v_0 (f5 f10 ?v1))) (= (f4 ?v_1 (f4 ?v_0 ?v2)) (f4 ?v_0 (f4 ?v_1 ?v2))))))
(assert (forall ((?v0 S2)) (= (f4 (f5 f6 f17) ?v0) ?v0)))
(assert (= f18 (f14 (f15 f16 f17) f19)))
(assert (=> (forall ((?v0 S5)) (=> (= f18 (f14 (f15 f16 f17) ?v0)) false)) false))
(assert (= (f20 f21 f22) f17))
(assert (forall ((?v0 S2) (?v1 S5) (?v2 S2) (?v3 S5)) (= (= (f14 (f15 f16 ?v0) ?v1) (f14 (f15 f16 ?v2) ?v3)) (and (= ?v0 ?v2) (= ?v1 ?v3)))))
(assert (forall ((?v0 S2) (?v1 S2) (?v2 S2)) (let ((?v_0 (f5 f10 ?v0))) (= (f4 (f5 f10 (f4 ?v_0 ?v1)) ?v2) (f4 ?v_0 (f4 (f5 f10 ?v1) ?v2))))))
(assert (forall ((?v0 S2) (?v1 S2)) (= (f4 (f5 f10 ?v0) ?v1) (f4 (f5 f10 ?v1) ?v0))))
(assert (forall ((?v0 S2) (?v1 S2)) (=> (forall ((?v2 S2) (?v3 S2)) (=> (= ?v2 (f4 (f5 f7 ?v0) ?v1)) (=> (= ?v3 (f4 (f5 f23 ?v0) ?v1)) (=> (= ?v0 (f4 (f5 f10 (f4 (f5 f6 ?v2) ?v1)) ?v3)) false)))) false)))
(assert (forall ((?v0 S2) (?v1 S2)) (= (= (f4 (f5 f23 ?v0) ?v1) f24) (exists ((?v2 S2)) (= ?v0 (f4 (f5 f6 ?v1) ?v2))))))
(assert (forall ((?v0 S2) (?v1 S2) (?v2 S5)) (= (f20 f25 (f9 ?v0 ?v1 ?v2)) ?v0)))
(assert (let ((?v_0 (f5 f10 f26)) (?v_1 (f11 (f12 f13 f19) f28))) (not (=> (= (f4 (f5 f23 (f4 ?v_0 (f4 (f5 f10 f27) ?v_1))) f29) (f4 (f5 f23 (f4 ?v_0 (f4 (f5 f10 f30) ?v_1))) f29)) (=> (= f22 (f9 f29 f26 f18)) (= (= (f8 f22 (f14 (f15 f16 f27) f28)) f1) (= (f8 f22 (f14 (f15 f16 f30) f28)) f1)))))))
(check-sat)
(exit)
